c defined variables: 4 9 13 18 22 27 31 35 36 37 38 42 46 51 55 59 64 68 72 73 74 78 82 86 87 88 89 93 97 101 105 109 113 114 118 119 120 124 128 132 133 134 138 142 146 147 148 149 153 157 161 162 163 164 168 172 173 174 178 182 186 187 188 192 196 197 198 202 206 207 208 212 216 220 224 228 232 236 237 238 239 243 252 256 263 267 271 275 276 277 281 294 295 306 310 314 319 324 325 326 330 334 345 350 354 358 359 360 361 365 369 373 374 375 376 380 384 385 386 390 394 398 399 400 404 408 409 410 414 418 419 420 423 424 426 427 428 429 432 433 434 435 438 439 440 441 444 445 448 449 452 453 456 457 458 459 460 461 464 
p cnf 1511 1678
a 364 393 379 389 372 368 397 383 403 413 58 62 77 67 81 54 49 92 34 96 407 417 309 353 266 262 270 280 290 287 293 274 21 25 45 16 41 30 12 1 6 340 357 349 333 313 329 317 323 343 337 242 246 219 205 215 211 201 185 195 191 50 7 26 2 3 17 63 8 227 235 231 223 300 259 305 251 255 284 123 104 127 137 100 141 85 71 108 112 152 177 167 156 117 131 145 181 160 171 0
e 5 10 11 14 15 19 20 23 24 28 29 32 33 39 40 43 44 47 48 52 53 56 57 60 61 65 66 69 70 75 76 79 80 83 84 90 91 94 95 98 99 102 103 106 107 110 111 115 116 121 122 125 126 129 130 135 136 139 140 143 144 150 151 154 155 158 159 165 166 169 170 175 176 179 180 183 184 189 190 193 194 199 200 203 204 209 210 213 214 217 218 221 222 225 226 229 230 233 234 240 241 244 245 248 249 250 253 254 257 258 260 261 264 265 268 269 272 273 278 279 282 283 285 286 288 289 291 292 297 298 299 302 303 304 307 308 311 312 315 316 320 321 322 327 328 331 332 335 336 338 339 341 342 346 347 348 351 352 355 356 362 363 366 367 370 371 377 378 381 382 387 388 391 392 395 396 401 402 405 406 411 412 415 416 421 422 425 430 431 436 437 442 443 446 447 450 451 454 455 462 463 4 9 13 18 22 27 31 35 36 37 38 42 46 51 55 59 64 68 72 73 74 78 82 86 87 88 89 93 97 101 105 109 113 114 118 119 120 124 128 132 133 134 138 142 146 147 148 149 153 157 161 162 163 164 168 172 173 174 178 182 186 187 188 192 196 197 198 202 206 207 208 212 216 220 224 228 232 236 237 238 239 243 252 256 263 267 271 275 276 277 281 294 295 306 310 314 319 324 325 326 330 334 345 350 354 358 359 360 361 365 369 373 374 375 376 380 384 385 386 390 394 398 399 400 404 408 409 410 414 418 419 420 423 424 426 427 428 429 432 433 434 435 438 439 440 441 444 445 448 449 452 453 456 457 458 459 460 461 464 1354 1355 1356 1357 1358 1359 1360 1361 1362 1363 1364 1365 1366 1367 1368 1369 1370 1371 1372 1373 1374 1375 1376 1377 1378 1379 1380 1381 1382 1383 1384 1385 1386 1387 1388 1389 1390 1391 1392 1393 1394 1395 1396 1397 1398 1399 1400 1401 1402 1403 1404 1405 1406 1407 1408 1409 1410 1411 1412 1413 1414 1415 1416 1417 1418 1419 1420 1421 1422 1423 1424 1425 1426 1427 1428 1429 1430 1431 1432 1433 1434 1435 1436 1437 1438 1439 1440 1441 1442 1443 1444 1445 1446 1447 1448 1449 1450 1451 1452 1453 1454 1455 1456 1457 1458 1459 1460 1461 1462 1463 1464 1465 1466 1467 1468 1469 1470 1471 1472 1473 1474 1475 1476 1477 1478 1479 1480 1481 1482 1483 1484 1485 1486 1487 1488 1489 1490 1491 1492 1493 1494 1495 1496 1497 1498 1499 1500 1501 1502 1503 1504 1505 1506 1507 1508 1509 1510 1511 0
d 247 2 17 0
d 296 290 287 0
d 301 284 259 0
d 344 340 337 0
d 318 3 63 0
1355 -4 0
-1355 4 0
1356 -9 0
-1356 9 0
-1359 -13 0
1359 13 0
1360 -18 0
-1360 18 0
1361 -22 0
-1361 22 0
1362 -27 0
-1362 27 0
-1365 -31 0
1365 31 0
-1354 -35 0
1354 35 0
-1354 -36 0
1354 36 0
1357 -37 0
-1357 37 0
-1366 -38 0
1366 38 0
-1369 -42 0
1369 42 0
-1372 -46 0
1372 46 0
1373 -51 0
-1373 51 0
1374 -55 0
-1374 55 0
1375 -59 0
-1375 59 0
1376 -64 0
-1376 64 0
-1379 -68 0
1379 68 0
1367 -72 0
-1367 72 0
1363 -73 0
-1363 73 0
-1380 -74 0
1380 74 0
-1383 -78 0
1383 78 0
-1386 -82 0
1386 82 0
-1354 -86 0
1354 86 0
-1354 -87 0
1354 87 0
1370 -88 0
-1370 88 0
1387 -89 0
-1387 89 0
-1390 -93 0
1390 93 0
-1393 -97 0
1393 97 0
1394 -101 0
-1394 101 0
1395 -105 0
-1395 105 0
1396 -109 0
-1396 109 0
-1354 -113 0
1354 113 0
1397 -114 0
-1397 114 0
1381 -118 0
-1381 118 0
1377 -119 0
-1377 119 0
-1398 -120 0
1398 120 0
-1401 -124 0
1401 124 0
-1404 -128 0
1404 128 0
1388 -132 0
-1388 132 0
1384 -133 0
-1384 133 0
-1405 -134 0
1405 134 0
-1408 -138 0
1408 138 0
-1411 -142 0
1411 142 0
-1354 -146 0
1354 146 0
-1354 -147 0
1354 147 0
1391 -148 0
-1391 148 0
1412 -149 0
-1412 149 0
1413 -153 0
-1413 153 0
1414 -157 0
-1414 157 0
1399 -161 0
-1399 161 0
-1354 -162 0
1354 162 0
-1354 -163 0
1354 163 0
1415 -164 0
-1415 164 0
-1418 -168 0
1418 168 0
1406 -172 0
-1406 172 0
1402 -173 0
-1402 173 0
-1419 -174 0
1419 174 0
-1422 -178 0
1422 178 0
-1425 -182 0
1425 182 0
1426 -186 0
-1426 186 0
1409 -187 0
-1409 187 0
-1427 -188 0
1427 188 0
1428 -192 0
-1428 192 0
1420 -196 0
-1420 196 0
1416 -197 0
-1416 197 0
-1429 -198 0
1429 198 0
-1432 -202 0
1432 202 0
1433 -206 0
-1433 206 0
1423 -207 0
-1423 207 0
-1434 -208 0
1434 208 0
1355 -212 0
-1355 212 0
1356 -216 0
-1356 216 0
-1437 -220 0
1437 220 0
1361 -224 0
-1361 224 0
1362 -228 0
-1362 228 0
-1440 -232 0
1440 232 0
-1354 -236 0
1354 236 0
-1354 -237 0
1354 237 0
1435 -238 0
-1435 238 0
1441 -239 0
-1441 239 0
-1444 -243 0
1444 243 0
1373 -252 0
-1373 252 0
1374 -256 0
-1374 256 0
1375 -263 0
-1375 263 0
1376 -267 0
-1376 267 0
-1447 -271 0
1447 271 0
1442 -275 0
-1442 275 0
1438 -276 0
-1438 276 0
-1448 -277 0
1448 277 0
-1451 -281 0
1451 281 0
-1354 -294 0
1354 294 0
-1354 -295 0
1354 295 0
-1454 -306 0
1454 306 0
1394 -310 0
-1394 310 0
1395 -314 0
-1395 314 0
-1354 -319 0
1354 319 0
1449 -324 0
-1449 324 0
1445 -325 0
-1445 325 0
-1455 -326 0
1455 326 0
-1458 -330 0
1458 330 0
-1461 -334 0
1461 334 0
1462 -345 0
-1462 345 0
-1465 -350 0
1465 350 0
-1468 -354 0
1468 354 0
-1354 -358 0
1354 358 0
-1354 -359 0
1354 359 0
1452 -360 0
-1452 360 0
1469 -361 0
-1469 361 0
1413 -365 0
-1413 365 0
1414 -369 0
-1414 369 0
1456 -373 0
-1456 373 0
-1354 -374 0
1354 374 0
-1354 -375 0
1354 375 0
1470 -376 0
-1470 376 0
-1473 -380 0
1473 380 0
1463 -384 0
-1463 384 0
1459 -385 0
-1459 385 0
-1474 -386 0
1474 386 0
-1477 -390 0
1477 390 0
-1480 -394 0
1480 394 0
1481 -398 0
-1481 398 0
1466 -399 0
-1466 399 0
-1482 -400 0
1482 400 0
1428 -404 0
-1428 404 0
1475 -408 0
-1475 408 0
1471 -409 0
-1471 409 0
-1483 -410 0
1483 410 0
-1486 -414 0
1486 414 0
1487 -418 0
-1487 418 0
1478 -419 0
-1478 419 0
-1488 -420 0
1488 420 0
1489 -423 0
-1489 423 0
1489 -424 0
-1489 424 0
-1354 -426 0
1354 426 0
1490 -427 0
-1490 427 0
-1354 -428 0
1354 428 0
1491 -429 0
-1491 429 0
-1354 -432 0
1354 432 0
1492 -433 0
-1492 433 0
-1354 -434 0
1354 434 0
1493 -435 0
-1493 435 0
-1354 -438 0
1354 438 0
1494 -439 0
-1494 439 0
-1354 -440 0
1354 440 0
1495 -441 0
-1495 441 0
-1497 -444 0
1497 444 0
-1499 -445 0
1499 445 0
-1501 -448 0
1501 448 0
-1503 -449 0
1503 449 0
-1506 -452 0
1506 452 0
-1509 -453 0
1509 453 0
1504 -456 0
-1504 456 0
1484 -457 0
-1484 457 0
-1510 -458 0
1510 458 0
1507 -459 0
-1507 459 0
1430 -460 0
-1430 460 0
-1511 -461 0
1511 461 0
1354 -464 0
-1354 464 0
464 0
-464 422 463 0
-422 416 -421 0
-416 412 -415 0
-412 406 -411 0
-406 402 -405 0
-402 396 -401 0
-396 392 -395 0
-392 388 -391 0
-388 382 -387 0
-382 378 -381 0
-378 371 -377 0
-371 367 -370 0
-367 363 -366 0
-363 356 -362 0
-356 352 -355 0
-352 348 -351 0
-348 342 -347 0
-342 339 -341 0
-339 336 -338 0
-336 332 -335 0
-332 328 -331 0
-328 322 -327 0
-322 316 -321 0
-316 312 -315 0
-312 308 -311 0
-308 304 -307 0
-304 299 -303 0
-299 292 -298 0
-292 289 -291 0
-289 286 -288 0
-286 283 -285 0
-283 279 -282 0
-279 273 -278 0
-273 269 -272 0
-269 265 -268 0
-265 261 -264 0
-261 258 -260 0
-258 254 -257 0
-254 250 -253 0
-250 245 -249 0
-245 241 -244 0
-241 234 -240 0
-234 230 -233 0
-230 226 -229 0
-226 222 -225 0
-222 218 -221 0
-218 214 -217 0
-214 210 -213 0
-210 204 -209 0
-204 200 -203 0
-200 194 -199 0
-194 190 -193 0
-190 184 -189 0
-184 180 -183 0
-180 176 -179 0
-176 170 -175 0
-170 166 -169 0
-166 159 -165 0
-159 155 -158 0
-155 151 -154 0
-151 144 -150 0
-144 140 -143 0
-140 136 -139 0
-136 130 -135 0
-130 126 -129 0
-126 122 -125 0
-122 116 -121 0
-116 111 -115 0
-111 107 -110 0
-107 103 -106 0
-103 99 -102 0
-99 95 -98 0
-95 91 -94 0
-91 84 -90 0
-84 80 -83 0
-80 76 -79 0
-76 70 -75 0
-70 66 -69 0
-66 61 -65 0
-61 57 -60 0
-57 53 -56 0
-53 48 -52 0
-48 44 -47 0
-44 40 -43 0
-40 33 -39 0
-33 29 -32 0
-29 24 -28 0
-24 20 -23 0
-20 15 -19 0
-15 11 -14 0
-11 -5 -10 0
1 4 5 0
-1 -4 5 0
-2 -3 4 0
-4 2 0
-4 3 0
6 9 10 0
-6 -9 10 0
-7 -8 9 0
-9 7 0
-9 8 0
12 -13 14 0
-12 13 14 0
-13 -1 6 0
-13 1 -6 0
1 6 13 0
-1 -6 13 0
16 18 19 0
-16 -18 19 0
-2 -17 18 0
-18 2 0
-18 17 0
21 22 23 0
-21 -22 23 0
-7 -3 22 0
-22 7 0
-22 3 0
25 27 28 0
-25 -27 28 0
-26 -8 27 0
-27 26 0
-27 8 0
30 -31 32 0
-30 31 32 0
-31 -21 25 0
-31 21 -25 0
21 25 31 0
-21 -25 31 0
34 38 39 0
-34 -38 39 0
-36 37 38 0
36 -37 38 0
-36 -37 38 0
-12 -35 36 0
-2 2 35 0
-1 -6 37 0
-38 36 37 0
-36 12 0
-36 35 0
-35 2 0
-35 -2 0
-37 1 0
-37 6 0
41 -42 43 0
-41 42 43 0
-42 -30 34 0
-42 30 -34 0
30 34 42 0
-30 -34 42 0
45 -46 47 0
-45 46 47 0
-46 -16 41 0
-46 16 -41 0
16 41 46 0
-16 -41 46 0
49 51 52 0
-49 -51 52 0
-2 -50 51 0
-51 2 0
-51 50 0
54 55 56 0
-54 -55 56 0
-7 -17 55 0
-55 7 0
-55 17 0
58 59 60 0
-58 -59 60 0
-26 -3 59 0
-59 26 0
-59 3 0
62 64 65 0
-62 -64 65 0
-63 -8 64 0
-64 63 0
-64 8 0
67 -68 69 0
-67 68 69 0
-68 -58 62 0
-68 58 -62 0
58 62 68 0
-58 -62 68 0
71 74 75 0
-71 -74 75 0
-72 73 74 0
72 -73 74 0
-72 -73 74 0
-30 -34 72 0
-21 -25 73 0
-74 72 73 0
-72 30 0
-72 34 0
-73 21 0
-73 25 0
77 -78 79 0
-77 78 79 0
-78 -67 71 0
-78 67 -71 0
67 71 78 0
-67 -71 78 0
81 -82 83 0
-81 82 83 0
-82 -54 77 0
-82 54 -77 0
54 77 82 0
-54 -77 82 0
85 89 90 0
-85 -89 90 0
-87 88 89 0
87 -88 89 0
-87 -88 89 0
-45 -86 87 0
-2 2 86 0
-16 -41 88 0
-89 87 88 0
-87 45 0
-87 86 0
-86 2 0
-86 -2 0
-88 16 0
-88 41 0
92 -93 94 0
-92 93 94 0
-93 -81 85 0
-93 81 -85 0
81 85 93 0
-81 -85 93 0
96 -97 98 0
-96 97 98 0
-97 -49 92 0
-97 49 -92 0
49 92 97 0
-49 -92 97 0
100 101 102 0
-100 -101 102 0
-7 -50 101 0
-101 7 0
-101 50 0
104 105 106 0
-104 -105 106 0
-26 -17 105 0
-105 26 0
-105 17 0
108 109 110 0
-108 -109 110 0
-63 -3 109 0
-109 63 0
-109 3 0
112 -114 115 0
-112 114 115 0
-114 -108 113 0
-114 108 -113 0
-113 2 0
-113 -2 0
-2 2 113 0
108 113 114 0
-108 -113 114 0
-2 2 113 0
-113 2 0
-113 -2 0
117 120 121 0
-117 -120 121 0
-118 119 120 0
118 -119 120 0
-118 -119 120 0
-67 -71 118 0
-58 -62 119 0
-120 118 119 0
-118 67 0
-118 71 0
-119 58 0
-119 62 0
123 -124 125 0
-123 124 125 0
-124 -112 117 0
-124 112 -117 0
112 117 124 0
-112 -117 124 0
127 -128 129 0
-127 128 129 0
-128 -104 123 0
-128 104 -123 0
104 123 128 0
-104 -123 128 0
131 134 135 0
-131 -134 135 0
-132 133 134 0
132 -133 134 0
-132 -133 134 0
-81 -85 132 0
-54 -77 133 0
-134 132 133 0
-132 81 0
-132 85 0
-133 54 0
-133 77 0
137 -138 139 0
-137 138 139 0
-138 -127 131 0
-138 127 -131 0
127 131 138 0
-127 -131 138 0
141 -142 143 0
-141 142 143 0
-142 -100 137 0
-142 100 -137 0
100 137 142 0
-100 -137 142 0
145 149 150 0
-145 -149 150 0
-147 148 149 0
147 -148 149 0
-147 -148 149 0
-96 -146 147 0
-2 2 146 0
-49 -92 148 0
-149 147 148 0
-147 96 0
-147 146 0
-146 2 0
-146 -2 0
-148 49 0
-148 92 0
152 153 154 0
-152 -153 154 0
-26 -50 153 0
-153 26 0
-153 50 0
156 157 158 0
-156 -157 158 0
-63 -17 157 0
-157 63 0
-157 17 0
160 164 165 0
-160 -164 165 0
-161 163 164 0
161 -163 164 0
-161 -163 164 0
-112 -117 161 0
-108 -162 163 0
-2 2 162 0
-164 161 163 0
-161 112 0
-161 117 0
-163 108 0
-163 162 0
-162 2 0
-162 -2 0
167 -168 169 0
-167 168 169 0
-168 -156 160 0
-168 156 -160 0
156 160 168 0
-156 -160 168 0
171 174 175 0
-171 -174 175 0
-172 173 174 0
172 -173 174 0
-172 -173 174 0
-127 -131 172 0
-104 -123 173 0
-174 172 173 0
-172 127 0
-172 131 0
-173 104 0
-173 123 0
177 -178 179 0
-177 178 179 0
-178 -167 171 0
-178 167 -171 0
167 171 178 0
-167 -171 178 0
181 -182 183 0
-181 182 183 0
-182 -152 177 0
-182 152 -177 0
152 177 182 0
-152 -177 182 0
185 188 189 0
-185 -188 189 0
-186 187 188 0
186 -187 188 0
-186 -187 188 0
-141 -145 186 0
-100 -137 187 0
-188 186 187 0
-186 141 0
-186 145 0
-187 100 0
-187 137 0
191 192 193 0
-191 -192 193 0
-63 -50 192 0
-192 63 0
-192 50 0
195 198 199 0
-195 -198 199 0
-196 197 198 0
196 -197 198 0
-196 -197 198 0
-167 -171 196 0
-156 -160 197 0
-198 196 197 0
-196 167 0
-196 171 0
-197 156 0
-197 160 0
201 -202 203 0
-201 202 203 0
-202 -191 195 0
-202 191 -195 0
191 195 202 0
-191 -195 202 0
205 208 209 0
-205 -208 209 0
-206 207 208 0
206 -207 208 0
-206 -207 208 0
-181 -185 206 0
-152 -177 207 0
-208 206 207 0
-206 181 0
-206 185 0
-207 152 0
-207 177 0
211 212 213 0
-211 -212 213 0
-2 -3 212 0
-212 2 0
-212 3 0
215 216 217 0
-215 -216 217 0
-7 -8 216 0
-216 7 0
-216 8 0
219 -220 221 0
-219 220 221 0
-220 -211 215 0
-220 211 -215 0
211 215 220 0
-211 -215 220 0
223 224 225 0
-223 -224 225 0
-7 -3 224 0
-224 7 0
-224 3 0
227 228 229 0
-227 -228 229 0
-26 -8 228 0
-228 26 0
-228 8 0
231 -232 233 0
-231 232 233 0
-232 -223 227 0
-232 223 -227 0
223 227 232 0
-223 -227 232 0
235 239 240 0
-235 -239 240 0
-237 238 239 0
237 -238 239 0
-237 -238 239 0
-219 -236 237 0
-2 2 236 0
-211 -215 238 0
-239 237 238 0
-237 219 0
-237 236 0
-236 2 0
-236 -2 0
-238 211 0
-238 215 0
242 -243 244 0
-242 243 244 0
-243 -231 235 0
-243 231 -235 0
231 235 243 0
-231 -235 243 0
246 -248 249 0
-246 248 249 0
-248 -247 242 0
-248 247 -242 0
247 242 248 0
-247 -242 248 0
251 252 253 0
-251 -252 253 0
-2 -50 252 0
-252 2 0
-252 50 0
255 256 257 0
-255 -256 257 0
-7 -17 256 0
-256 7 0
-256 17 0
259 255 260 0
-259 -255 260 0
262 263 264 0
-262 -263 264 0
-26 -3 263 0
-263 26 0
-263 3 0
266 267 268 0
-266 -267 268 0
-63 -8 267 0
-267 63 0
-267 8 0
270 -271 272 0
-270 271 272 0
-271 -262 266 0
-271 262 -266 0
262 266 271 0
-262 -266 271 0
274 277 278 0
-274 -277 278 0
-275 276 277 0
275 -276 277 0
-275 -276 277 0
-231 -235 275 0
-223 -227 276 0
-277 275 276 0
-275 231 0
-275 235 0
-276 223 0
-276 227 0
280 281 282 0
-280 -281 282 0
270 274 281 0
-270 -274 281 0
-281 -270 274 0
-281 270 -274 0
284 280 285 0
-284 -280 285 0
287 247 288 0
-287 -247 288 0
290 242 291 0
-290 -242 291 0
293 297 298 0
-293 -297 298 0
-295 296 297 0
295 -296 297 0
-295 -296 297 0
-246 -294 295 0
-2 2 294 0
-297 295 296 0
-295 246 0
-295 294 0
-294 2 0
-294 -2 0
300 -302 303 0
-300 302 303 0
-302 -301 293 0
-302 301 -293 0
301 293 302 0
-301 -293 302 0
305 -306 307 0
-305 306 307 0
-306 -251 300 0
-306 251 -300 0
251 300 306 0
-251 -300 306 0
309 310 311 0
-309 -310 311 0
-7 -50 310 0
-310 7 0
-310 50 0
313 314 315 0
-313 -314 315 0
-26 -17 314 0
-314 26 0
-314 17 0
317 -320 321 0
-317 320 321 0
-320 -318 319 0
-320 318 -319 0
-319 2 0
-319 -2 0
-2 2 319 0
318 319 320 0
-318 -319 320 0
-2 2 319 0
-319 2 0
-319 -2 0
323 326 327 0
-323 -326 327 0
-324 325 326 0
324 -325 326 0
-324 -325 326 0
-270 -274 324 0
-262 -266 325 0
-326 324 325 0
-324 270 0
-324 274 0
-325 262 0
-325 266 0
329 -330 331 0
-329 330 331 0
-330 -317 323 0
-330 317 -323 0
317 323 330 0
-317 -323 330 0
333 -334 335 0
-333 334 335 0
-334 -313 329 0
-334 313 -329 0
313 329 334 0
-313 -329 334 0
337 301 338 0
-337 -301 338 0
340 293 341 0
-340 -293 341 0
343 346 347 0
-343 -346 347 0
-344 345 346 0
344 -345 346 0
-344 -345 346 0
-255 -280 345 0
-346 344 345 0
-345 255 0
-345 280 0
349 -350 351 0
-349 350 351 0
-350 -333 343 0
-350 333 -343 0
333 343 350 0
-333 -343 350 0
353 -354 355 0
-353 354 355 0
-354 -309 349 0
-354 309 -349 0
309 349 354 0
-309 -349 354 0
357 361 362 0
-357 -361 362 0
-359 360 361 0
359 -360 361 0
-359 -360 361 0
-305 -358 359 0
-2 2 358 0
-251 -300 360 0
-361 359 360 0
-359 305 0
-359 358 0
-358 2 0
-358 -2 0
-360 251 0
-360 300 0
364 365 366 0
-364 -365 366 0
-26 -50 365 0
-365 26 0
-365 50 0
368 369 370 0
-368 -369 370 0
-63 -17 369 0
-369 63 0
-369 17 0
372 376 377 0
-372 -376 377 0
-373 375 376 0
373 -375 376 0
-373 -375 376 0
-317 -323 373 0
-318 -374 375 0
-2 2 374 0
-376 373 375 0
-373 317 0
-373 323 0
-375 318 0
-375 374 0
-374 2 0
-374 -2 0
379 -380 381 0
-379 380 381 0
-380 -368 372 0
-380 368 -372 0
368 372 380 0
-368 -372 380 0
383 386 387 0
-383 -386 387 0
-384 385 386 0
384 -385 386 0
-384 -385 386 0
-333 -343 384 0
-313 -329 385 0
-386 384 385 0
-384 333 0
-384 343 0
-385 313 0
-385 329 0
389 -390 391 0
-389 390 391 0
-390 -379 383 0
-390 379 -383 0
379 383 390 0
-379 -383 390 0
393 -394 395 0
-393 394 395 0
-394 -364 389 0
-394 364 -389 0
364 389 394 0
-364 -389 394 0
397 400 401 0
-397 -400 401 0
-398 399 400 0
398 -399 400 0
-398 -399 400 0
-353 -357 398 0
-309 -349 399 0
-400 398 399 0
-398 353 0
-398 357 0
-399 309 0
-399 349 0
403 404 405 0
-403 -404 405 0
-63 -50 404 0
-404 63 0
-404 50 0
407 410 411 0
-407 -410 411 0
-408 409 410 0
408 -409 410 0
-408 -409 410 0
-379 -383 408 0
-368 -372 409 0
-410 408 409 0
-408 379 0
-408 383 0
-409 368 0
-409 372 0
413 -414 415 0
-413 414 415 0
-414 -403 407 0
-414 403 -407 0
403 407 414 0
-403 -407 414 0
417 420 421 0
-417 -420 421 0
-418 419 420 0
418 -419 420 0
-418 -419 420 0
-393 -397 418 0
-364 -389 419 0
-420 418 419 0
-418 393 0
-418 397 0
-419 364 0
-419 389 0
-463 455 0
-463 462 0
-455 451 0
-455 454 0
-451 447 0
-451 450 0
-447 443 0
-447 446 0
-443 437 0
-443 442 0
-437 431 0
-437 436 0
-431 425 0
-431 430 0
-425 -423 424 0
-425 423 -424 0
-423 2 0
-423 8 0
-424 2 0
-424 8 0
-2 -8 423 0
-2 -8 424 0
-430 427 -429 0
-430 -427 429 0
219 426 427 0
-219 -426 427 0
-2 2 426 0
-426 2 0
-426 -2 0
12 428 429 0
-12 -428 429 0
-2 2 428 0
-428 2 0
-428 -2 0
-427 -219 426 0
-427 219 -426 0
-426 2 0
-426 -2 0
-2 2 426 0
-429 -12 428 0
-429 12 -428 0
-428 2 0
-428 -2 0
-2 2 428 0
-436 433 -435 0
-436 -433 435 0
246 432 433 0
-246 -432 433 0
-2 2 432 0
-432 2 0
-432 -2 0
45 434 435 0
-45 -434 435 0
-2 2 434 0
-434 2 0
-434 -2 0
-433 -246 432 0
-433 246 -432 0
-432 2 0
-432 -2 0
-2 2 432 0
-435 -45 434 0
-435 45 -434 0
-434 2 0
-434 -2 0
-2 2 434 0
-442 439 -441 0
-442 -439 441 0
305 438 439 0
-305 -438 439 0
-2 2 438 0
-438 2 0
-438 -2 0
96 440 441 0
-96 -440 441 0
-2 2 440 0
-440 2 0
-440 -2 0
-439 -305 438 0
-439 305 -438 0
-438 2 0
-438 -2 0
-2 2 438 0
-441 -96 440 0
-441 96 -440 0
-440 2 0
-440 -2 0
-2 2 440 0
-446 444 -445 0
-446 -444 445 0
353 357 444 0
-353 -357 444 0
141 145 445 0
-141 -145 445 0
-444 -353 357 0
-444 353 -357 0
-445 -141 145 0
-445 141 -145 0
-450 448 -449 0
-450 -448 449 0
393 397 448 0
-393 -397 448 0
181 185 449 0
-181 -185 449 0
-448 -393 397 0
-448 393 -397 0
-449 -181 185 0
-449 181 -185 0
-454 452 -453 0
-454 -452 453 0
413 417 452 0
-413 -417 452 0
201 205 453 0
-201 -205 453 0
-452 -413 417 0
-452 413 -417 0
-453 -201 205 0
-453 201 -205 0
-462 -458 461 0
-462 458 -461 0
-458 456 457 0
-456 413 0
-456 417 0
-457 403 0
-457 407 0
-461 459 460 0
-459 201 0
-459 205 0
-460 191 0
-460 195 0
-456 457 458 0
456 -457 458 0
-456 -457 458 0
-413 -417 456 0
-403 -407 457 0
-459 460 461 0
459 -460 461 0
-459 -460 461 0
-201 -205 459 0
-191 -195 460 0
1354 0
2 -1355 0
3 -1355 0
-2 -3 1355 0
7 -1356 0
8 -1356 0
-7 -8 1356 0
1 -1357 0
6 -1357 0
-1 -6 1357 0
-1 -1358 0
-6 -1358 0
1 6 1358 0
-1357 -1359 0
-1358 -1359 0
1357 1358 1359 0
2 -1360 0
17 -1360 0
-2 -17 1360 0
7 -1361 0
3 -1361 0
-7 -3 1361 0
26 -1362 0
8 -1362 0
-26 -8 1362 0
21 -1363 0
25 -1363 0
-21 -25 1363 0
-21 -1364 0
-25 -1364 0
21 25 1364 0
-1363 -1365 0
-1364 -1365 0
1363 1364 1365 0
-36 -1366 0
-37 -1366 0
36 37 1366 0
34 -1367 0
30 -1367 0
-34 -30 1367 0
-34 -1368 0
-30 -1368 0
34 30 1368 0
-1367 -1369 0
-1368 -1369 0
1367 1368 1369 0
16 -1370 0
41 -1370 0
-16 -41 1370 0
-16 -1371 0
-41 -1371 0
16 41 1371 0
-1370 -1372 0
-1371 -1372 0
1370 1371 1372 0
50 -1373 0
2 -1373 0
-50 -2 1373 0
7 -1374 0
17 -1374 0
-7 -17 1374 0
26 -1375 0
3 -1375 0
-26 -3 1375 0
63 -1376 0
8 -1376 0
-63 -8 1376 0
58 -1377 0
62 -1377 0
-58 -62 1377 0
-58 -1378 0
-62 -1378 0
58 62 1378 0
-1377 -1379 0
-1378 -1379 0
1377 1378 1379 0
-72 -1380 0
-73 -1380 0
72 73 1380 0
67 -1381 0
71 -1381 0
-67 -71 1381 0
-67 -1382 0
-71 -1382 0
67 71 1382 0
-1381 -1383 0
-1382 -1383 0
1381 1382 1383 0
77 -1384 0
54 -1384 0
-77 -54 1384 0
-77 -1385 0
-54 -1385 0
77 54 1385 0
-1384 -1386 0
-1385 -1386 0
1384 1385 1386 0
-87 -1387 0
88 -1387 0
87 -88 1387 0
81 -1388 0
85 -1388 0
-81 -85 1388 0
-81 -1389 0
-85 -1389 0
81 85 1389 0
-1388 -1390 0
-1389 -1390 0
1388 1389 1390 0
49 -1391 0
92 -1391 0
-49 -92 1391 0
-49 -1392 0
-92 -1392 0
49 92 1392 0
-1391 -1393 0
-1392 -1393 0
1391 1392 1393 0
50 -1394 0
7 -1394 0
-50 -7 1394 0
26 -1395 0
17 -1395 0
-26 -17 1395 0
3 -1396 0
63 -1396 0
-3 -63 1396 0
-108 -1397 0
-113 -1397 0
108 113 1397 0
-118 -1398 0
-119 -1398 0
118 119 1398 0
112 -1399 0
117 -1399 0
-112 -117 1399 0
-112 -1400 0
-117 -1400 0
112 117 1400 0
-1399 -1401 0
-1400 -1401 0
1399 1400 1401 0
123 -1402 0
104 -1402 0
-123 -104 1402 0
-123 -1403 0
-104 -1403 0
123 104 1403 0
-1402 -1404 0
-1403 -1404 0
1402 1403 1404 0
-132 -1405 0
-133 -1405 0
132 133 1405 0
127 -1406 0
131 -1406 0
-127 -131 1406 0
-127 -1407 0
-131 -1407 0
127 131 1407 0
-1406 -1408 0
-1407 -1408 0
1406 1407 1408 0
137 -1409 0
100 -1409 0
-137 -100 1409 0
-137 -1410 0
-100 -1410 0
137 100 1410 0
-1409 -1411 0
-1410 -1411 0
1409 1410 1411 0
-147 -1412 0
148 -1412 0
147 -148 1412 0
50 -1413 0
26 -1413 0
-50 -26 1413 0
17 -1414 0
63 -1414 0
-17 -63 1414 0
161 -1415 0
-163 -1415 0
-161 163 1415 0
156 -1416 0
160 -1416 0
-156 -160 1416 0
-156 -1417 0
-160 -1417 0
156 160 1417 0
-1416 -1418 0
-1417 -1418 0
1416 1417 1418 0
-172 -1419 0
-173 -1419 0
172 173 1419 0
167 -1420 0
171 -1420 0
-167 -171 1420 0
-167 -1421 0
-171 -1421 0
167 171 1421 0
-1420 -1422 0
-1421 -1422 0
1420 1421 1422 0
152 -1423 0
177 -1423 0
-152 -177 1423 0
-152 -1424 0
-177 -1424 0
152 177 1424 0
-1423 -1425 0
-1424 -1425 0
1423 1424 1425 0
141 -1426 0
145 -1426 0
-141 -145 1426 0
-186 -1427 0
-187 -1427 0
186 187 1427 0
50 -1428 0
63 -1428 0
-50 -63 1428 0
-196 -1429 0
-197 -1429 0
196 197 1429 0
195 -1430 0
191 -1430 0
-195 -191 1430 0
-195 -1431 0
-191 -1431 0
195 191 1431 0
-1430 -1432 0
-1431 -1432 0
1430 1431 1432 0
185 -1433 0
181 -1433 0
-185 -181 1433 0
-206 -1434 0
-207 -1434 0
206 207 1434 0
215 -1435 0
211 -1435 0
-215 -211 1435 0
-215 -1436 0
-211 -1436 0
215 211 1436 0
-1435 -1437 0
-1436 -1437 0
1435 1436 1437 0
227 -1438 0
223 -1438 0
-227 -223 1438 0
-227 -1439 0
-223 -1439 0
227 223 1439 0
-1438 -1440 0
-1439 -1440 0
1438 1439 1440 0
-237 -1441 0
238 -1441 0
237 -238 1441 0
235 -1442 0
231 -1442 0
-235 -231 1442 0
-235 -1443 0
-231 -1443 0
235 231 1443 0
-1442 -1444 0
-1443 -1444 0
1442 1443 1444 0
266 -1445 0
262 -1445 0
-266 -262 1445 0
-266 -1446 0
-262 -1446 0
266 262 1446 0
-1445 -1447 0
-1446 -1447 0
1445 1446 1447 0
-275 -1448 0
-276 -1448 0
275 276 1448 0
270 -1449 0
274 -1449 0
-270 -274 1449 0
-270 -1450 0
-274 -1450 0
270 274 1450 0
-1449 -1451 0
-1450 -1451 0
1449 1450 1451 0
300 -1452 0
251 -1452 0
-300 -251 1452 0
-300 -1453 0
-251 -1453 0
300 251 1453 0
-1452 -1454 0
-1453 -1454 0
1452 1453 1454 0
-324 -1455 0
-325 -1455 0
324 325 1455 0
317 -1456 0
323 -1456 0
-317 -323 1456 0
-317 -1457 0
-323 -1457 0
317 323 1457 0
-1456 -1458 0
-1457 -1458 0
1456 1457 1458 0
313 -1459 0
329 -1459 0
-313 -329 1459 0
-313 -1460 0
-329 -1460 0
313 329 1460 0
-1459 -1461 0
-1460 -1461 0
1459 1460 1461 0
280 -1462 0
255 -1462 0
-280 -255 1462 0
333 -1463 0
343 -1463 0
-333 -343 1463 0
-333 -1464 0
-343 -1464 0
333 343 1464 0
-1463 -1465 0
-1464 -1465 0
1463 1464 1465 0
309 -1466 0
349 -1466 0
-309 -349 1466 0
-309 -1467 0
-349 -1467 0
309 349 1467 0
-1466 -1468 0
-1467 -1468 0
1466 1467 1468 0
-359 -1469 0
360 -1469 0
359 -360 1469 0
373 -1470 0
-375 -1470 0
-373 375 1470 0
372 -1471 0
368 -1471 0
-372 -368 1471 0
-372 -1472 0
-368 -1472 0
372 368 1472 0
-1471 -1473 0
-1472 -1473 0
1471 1472 1473 0
-384 -1474 0
-385 -1474 0
384 385 1474 0
379 -1475 0
383 -1475 0
-379 -383 1475 0
-379 -1476 0
-383 -1476 0
379 383 1476 0
-1475 -1477 0
-1476 -1477 0
1475 1476 1477 0
364 -1478 0
389 -1478 0
-364 -389 1478 0
-364 -1479 0
-389 -1479 0
364 389 1479 0
-1478 -1480 0
-1479 -1480 0
1478 1479 1480 0
353 -1481 0
357 -1481 0
-353 -357 1481 0
-398 -1482 0
-399 -1482 0
398 399 1482 0
-408 -1483 0
-409 -1483 0
408 409 1483 0
403 -1484 0
407 -1484 0
-403 -407 1484 0
-403 -1485 0
-407 -1485 0
403 407 1485 0
-1484 -1486 0
-1485 -1486 0
1484 1485 1486 0
393 -1487 0
397 -1487 0
-393 -397 1487 0
-418 -1488 0
-419 -1488 0
418 419 1488 0
2 -1489 0
8 -1489 0
-2 -8 1489 0
-219 -1490 0
-426 -1490 0
219 426 1490 0
-12 -1491 0
-428 -1491 0
12 428 1491 0
-246 -1492 0
-432 -1492 0
246 432 1492 0
-45 -1493 0
-434 -1493 0
45 434 1493 0
-305 -1494 0
-438 -1494 0
305 438 1494 0
-96 -1495 0
-440 -1495 0
96 440 1495 0
-353 -1496 0
-357 -1496 0
353 357 1496 0
-1481 -1497 0
-1496 -1497 0
1481 1496 1497 0
-141 -1498 0
-145 -1498 0
141 145 1498 0
-1426 -1499 0
-1498 -1499 0
1426 1498 1499 0
-393 -1500 0
-397 -1500 0
393 397 1500 0
-1487 -1501 0
-1500 -1501 0
1487 1500 1501 0
-185 -1502 0
-181 -1502 0
185 181 1502 0
-1433 -1503 0
-1502 -1503 0
1433 1502 1503 0
413 -1504 0
417 -1504 0
-413 -417 1504 0
-413 -1505 0
-417 -1505 0
413 417 1505 0
-1504 -1506 0
-1505 -1506 0
1504 1505 1506 0
205 -1507 0
201 -1507 0
-205 -201 1507 0
-205 -1508 0
-201 -1508 0
205 201 1508 0
-1507 -1509 0
-1508 -1509 0
1507 1508 1509 0
-456 -1510 0
-457 -1510 0
456 457 1510 0
-459 -1511 0
-460 -1511 0
459 460 1511 0
